3
50
13449
[[600,503,268,662,930,990,848,987,388,206,260,512,598,253,170,666,226,145,592,432, 46,570,867,257,350,189,628,513,320,443,821,849,798,294,582,435,979,239,552,740,402,662,639,723,858,179,837,112, 15,799],
 [400,497,732,338, 70, 10,152, 13,612,794,740,488,402,747,830,334,774,855,408,568,954,430,133,743,650,811,372,487,680,557,179,151,202,706,418,565, 21,761,448,260,598,338,361,277,142,821,163,888,985,201],
 [ 35,  8, 20, 21, 34,  6, 93,  9, 25, 28, 15, 99, 48, 54, 17, 56, 17, 97, 82, 36, 84, 77, 12, 20, 31, 52, 20, 11, 25, 60, 85, 78, 94, 64, 70, 32, 15, 94, 43, 65, 13, 29, 44, 63, 29, 33, 39, 49, 69,  2]]
[848,964, 58,676,152,959,537,925,338,275,189,744,828,621,199,931,569,296,217,236,984,571,727, 68,197,916,367,166,772,409,413,907,486,778,237,206,692,214,479,787,784,205,845,239,893,545,759,249,574,868]